JulietBench/Juliet_Based_Patch_Bench/qemu/CWE-189-Numeric-Errors/CVE_2016_2538_fe3c546c5ff2a6210f9a4d8561cc64051ca8603e/cve2/solverusb_net_handle_dataout_patch1.smt2
; benchmark generated from python API
(set-info :status unknown)
(declare-fun R () (_ BitVec 32))
(declare-fun rdi () (_ BitVec 64))
(declare-fun rsi () (_ BitVec 64))
(declare-fun rdx () (_ BitVec 64))
(assert
 (let (($x1370 (= (_ bv0 32) R)))
 (let ((?x6 ((_ extract 31 0) rdi)))
 (let ((?x8 ((_ extract 31 0) rsi)))
 (let (($x97 (bvuge ?x8 ?x6)))
 (let (($x1365 (and $x97 $x1370)))
 (let (($x11 (bvult ?x8 ?x6)))
 (let ((?x10 ((_ extract 31 0) rdx)))
 (let (($x598 (bvuge ?x10 ?x6)))
 (let (($x1366 (and $x598 $x11 $x1370)))
 (let (($x117 (bvult ?x10 ?x6)))
 (let ((?x14 (bvadd ?x10 ?x8)))
 (let (($x19 (bvult ?x6 ?x14)))
 (let (($x1367 (and $x19 $x117 $x11 $x1370)))
 (let (($x115 (= R ?x8)))
 (let (($x64 (bvuge ?x6 ?x14)))
 (let (($x1368 (and $x64 $x117 $x11 $x115)))
 (let (($x1364 (or $x1368 $x1367 $x1366 $x1365)))
 (let (($x1377 (not $x1364)))
 (let (($x1372 (and $x19 $x1370)))
 (let (($x15 (and $x64 $x115)))
 (let (($x1369 (or $x15 $x1372)))
 (let (($x1376 (not $x1369)))
 (let (($x1378 (and $x1376 $x1377)))
 (let (($x1375 (and $x1369 $x1364)))
 (let (($x1379 (or $x1375 $x1378)))
 (not $x1379)))))))))))))))))))))))))))
(check-sat)
